CMD:
./solvers/bin/cadical --plain --no-reduce -t 1600 ./data/cnfs//oski15a01b59s/oski15a01b59s.86.cnf

c --- [ banner ] -------------------------------------------------------------
c 
c CaDiCaL SAT Solver
c Copyright (c) 2016-2024
c A. Biere, M. Fleury, N. Froleyks, K. Fazekas, F. Pollitt, T. Faller
c JKU Linz, University of Freiburg, TU Wien
c 
c Version 2.1.3 5296d3d2a9bf48c154ab2acb5e44625776d821bf
c g++ (Gentoo 12.3.1_p20230526 p2) 12.3.1 20230526 -Wall -Wextra -O3 -DNDEBUG
c Sat Aug 9 07:26:21 PDT 2025 Linux cedar2.int.cedar.computecanada.ca 5.14.0-362.24.2.el9_3.x86_64 x86_64
c 
c --- [ limit ] --------------------------------------------------------------
c 
c setting time limit to 1600 seconds real time (due to '-t 1600')
c 
c --- [ parsing input ] ------------------------------------------------------
c 
c reading DIMACS file from './data/cnfs//oski15a01b59s/oski15a01b59s.86.cnf'
c opening file to read './data/cnfs//oski15a01b59s/oski15a01b59s.86.cnf'
c found 'p cnf 28003350 80014385' header
c parsed 80014385 clauses in 17.22 seconds process time
c 
c --- [ options ] ------------------------------------------------------------
c 
c   --compact=false                (different from default 'true')
c   --decompose=false              (different from default 'true')
c   --deduplicate=false            (different from default 'true')
c   --elim=false                   (different from default 'true')
c   --probe=false                  (different from default 'true')
c   --reduce=false                 (different from default 'true')
c   --subsume=false                (different from default 'true')
c   --ternary=false                (different from default 'true')
c   --transred=false               (different from default 'true')
c   --vivify=false                 (different from default 'true')
c 
c --- [ solving ] ------------------------------------------------------------
c 
c time measured in process time since initialization
c 
c  seconds     reductions  redundant   irredundant
c           MB     restarts       trail          variables
c             level   conflicts       glue              remaining
c 
c * 17.22 12078  0 0   0    0    0  0% 0 76714423 23002112 82%
c { 22.77 12270  0 0   0    0    0  0% 0 76714423 23002112 82%
c i 29.96 12284 8803 0  23  131  129 22% 3 76714423 23002111 82%
c i 29.97 12284 8540 0  24  135  131 21% 3 76714423 23002110 82%
c i 30.04 12286 2189 0  25  573  535 19% 2 76714423 23002107 82%
c i 30.04 12286 2185 0  25  574  535 19% 2 76714423 23002104 82%
c i 30.04 12286 2177 0  25  576  536 19% 2 76714423 23002103 82%
c i 30.10 12287 1604 0  48  782  732 19% 2 76714423 23002100 82%
c i 30.11 12287 1569 0  53  800  748 19% 2 76714423 23002097 82%
c i 30.11 12287 1563 0  54  803  750 19% 2 76714423 23002095 82%
c i 30.11 12287 1561 0  54  804  750 19% 2 76714423 23002092 82%
c i 30.12 12287 1515 0  59  829  774 19% 2 76714423 23001912 82%
c i 30.16 12287 1479 0  63  850  793 19% 2 76714423 23001906 82%
c i 30.19 12287 1447 0  69  869  811 19% 2 76714423 23001903 82%
c i 30.19 12287 1446 0  69  870  811 19% 2 76714423 23001900 82%
c i 30.19 12287 1442 0  70  872  812 19% 2 76714423 23001897 82%
c i 30.28 12287 1319 0  92  957  889 19% 2 76714423 23001885 82%
c i 30.28 12287 1309 0  95  965  895 19% 2 76714423 23001882 82%
c i 30.28 12287 1304 0  96  969  898 19% 2 76714423 23001880 82%
c i 30.30 12287 1286 0 100  982  910 19% 2 76714423 23001877 82%
c 
c  seconds       reductions  redundant   irredundant
c           MB       restarts       trail          variables
c              level    conflicts       glue              remaining
c 
c i 30.31 12287 1275 0 102  992  918 19% 2 76714423 23001875 82%
c i 30.32 12287 1274 0 102  993  918 19% 2 76714423 23001874 82%
c i 30.32 12287 1267 0 103  998  921 19% 2 76714423 23001873 82%
c } 30.32 12287 1264 0 104 1000  923 19% 2 76714423 23001873 82%
c [ 30.32 12287  0 0 104 1000  923  0% 0 76714423 23001873 82%
c O 31.42 12287 10290 0 104 1002  925 30% 2 76714423 23001873 82%
c i 35.45 12292 15064 0 104 1604 1441 40% 13 76714423 23001870 82%
c i 35.61 12292 15084 0 104 1767 1583 40% 10 76714423 23001867 82%
c i 35.75 12292 15084 0 104 1824 1621 40% 10 76714423 23001864 82%
c i 35.75 12292 15084 0 104 1827 1623 40% 10 76714423 23001861 82%
c i 35.76 12292 15084 0 104 1831 1625 40% 10 76714423 23001858 82%
c i 35.79 12292 15085 0 104 1849 1637 40% 10 76714423 23001855 82%
c i 35.82 12292 15084 0 104 1855 1642 40% 10 76714423 23001852 82%
c i 35.84 12292 15084 0 104 1865 1649 40% 10 76714423 23001849 82%
c i 36.07 12292 15091 0 104 1987 1755 40% 10 76714423 23001846 82%
c i 36.10 12292 15105 0 104 2045 1810 40% 9 76714423 23001841 82%
c i 36.99 12294 15266 0 105 2283 2039 38% 8 76714423 23001837 82%
c ] 37.22 12295 16029 0 105 3000 2739 35% 6 76714423 23001837 82%
c { 37.22 12295 1264 0 105 3000 2739 19% 2 76714423 23001837 82%
c F 37.31 12296 1259 0 107 3004 2743 19% 2 76714423 23001837 82%
c 
c  seconds       reductions  redundant   irredundant
c           MB       restarts       trail          variables
c              level    conflicts       glue              remaining
c 
c i 37.31 12296 1256 0 107 3006 2744 19% 2 76714423 23001836 82%
c i 37.31 12296 1255 0 107 3007 2744 19% 2 76714423 23001833 82%
c i 37.38 12296 1246 0 108 3014 2749 19% 2 76714423 23001831 82%
c i 37.41 12296 1232 0 110 3027 2760 19% 2 76714423 23001827 82%
... skipped 2589 lines ...
c i 161.60 14385 248 0 4182 71871 58004 18% 3 65162904 22971063 82%
c i 161.68 14385 248 0 4190 71954 58082 18% 3 65162904 22971058 82%
c 
c  seconds       reductions     redundant   irredundant
c            MB      restarts          trail          variables
c               level     conflicts        glue              remaining
c 
c i 161.68 14385 248 0 4190 71955 58082 18% 3 65162904 22971056 82%
c i 161.86 14385 246 0 4233 72133 58245 18% 3 65162904 22971051 82%
c i 161.97 14385 246 0 4244 72170 58278 18% 3 65162904 22971048 82%
c i 161.97 14385 246 0 4247 72187 58291 18% 3 65162904 22971036 82%
c i 161.98 14385 246 0 4252 72204 58306 18% 3 65162904 22971034 82%
c i 162.52 14385 244 0 4344 72673 58734 18% 3 65162904 22971028 82%
c i 162.63 14385 243 0 4367 72753 58809 18% 3 65162904 22971025 82%
c i 162.66 14385 243 0 4373 72774 58827 18% 3 65162904 22971023 82%
c i 162.66 14385 243 0 4374 72777 58829 18% 3 65162904 22971016 82%
c i 162.66 14385 243 0 4374 72778 58829 18% 3 65162904 22971013 82%
c i 163.70 14385 251 0 4425 73077 59098 18% 3 65162904 22971004 82%
c i 164.04 14385 250 0 4473 73336 59345 18% 3 65162904 22971001 82%
c i 164.08 14385 250 0 4479 73358 59366 18% 3 65162904 22970992 82%
c i 164.08 14385 250 0 4480 73360 59367 18% 3 65162904 22970989 82%
c i 164.08 14385 250 0 4480 73362 59367 18% 3 65162904 22970983 82%
c i 164.11 14385 250 0 4484 73379 59381 18% 3 65162904 22970980 82%
c i 164.35 14385 250 0 4493 73456 59453 18% 3 65162904 22970977 82%
c i 164.45 14385 250 0 4509 73528 59516 18% 3 65162904 22970971 82%
c i 164.48 14385 250 0 4519 73570 59555 18% 3 65162904 22970965 82%
c i 164.94 14385 249 0 4591 73854 59811 18% 3 65162904 22970957 82%
c 
c  seconds       reductions     redundant   irredundant
c            MB      restarts          trail          variables
c               level     conflicts        glue              remaining
c 
c i 165.42 14385 248 0 4651 74097 60023 18% 3 65162904 22970938 82%
c i 165.55 14385 248 0 4666 74168 60089 18% 3 65162904 22970937 82%
c i 165.70 14385 247 0 4679 74298 60197 18% 3 65162904 22970936 82%
c i 165.95 14385 247 0 4706 74387 60280 18% 3 65162904 22970933 82%
c i 165.95 14385 247 0 4706 74388 60280 18% 3 65162904 22970930 82%
c i 165.98 14385 246 0 4715 74442 60316 18% 3 65162904 22970927 82%
c i 165.98 14385 246 0 4715 74443 60316 18% 3 65162904 22970924 82%
c i 165.98 14385 246 0 4715 74444 60316 18% 3 65162904 22970921 82%
c i 165.99 14385 246 0 4718 74451 60322 18% 3 65162904 22970918 82%
c i 165.99 14385 246 0 4718 74452 60322 18% 3 65162904 22970915 82%
c i 165.99 14385 246 0 4724 74471 60339 18% 3 65162904 22970912 82%
c i 165.99 14385 246 0 4724 74474 60339 18% 3 65162904 22970907 82%
c i 166.08 14385 245 0 4755 74641 60486 18% 3 65162904 22970903 82%
c i 166.18 14385 245 0 4771 74700 60537 18% 3 65162904 22970898 82%
c i 166.18 14385 245 0 4773 74704 60540 18% 3 65162904 22970891 82%
c i 166.18 14385 245 0 4773 74705 60540 18% 3 65162904 22970885 82%
c i 166.18 14385 245 0 4773 74706 60540 18% 3 65162904 22970882 82%
c i 166.24 14385 244 0 4789 74765 60595 18% 3 65162904 22970877 82%
c i 166.43 14385 244 0 4808 74835 60659 18% 3 65162904 22970768 82%
c i 166.46 14385 245 0 4809 74880 60702 18% 3 65162904 22970764 82%
c 
c  seconds       reductions     redundant   irredundant
c            MB      restarts          trail          variables
c               level     conflicts        glue              remaining
c 
c i 166.79 14385 253 0 4820 75151 60952 18% 3 65162904 22970499 82%
c i 167.08 14385 254 0 4827 75177 60977 18% 3 65162904 22970493 82%
c i 167.30 14385 254 0 4841 75270 61060 18% 3 65162904 22970487 82%
c i 167.41 14385 254 0 4847 75353 61134 18% 3 65162904 22970485 82%
c i 168.22 14385 254 0 4924 75751 61487 18% 3 65162904 22970483 82%
c i 168.49 14385 253 0 4955 75908 61636 18% 3 65162904 22970473 82%
c i 168.49 14385 253 0 4955 75915 61641 18% 3 65162904 22970462 82%
c i 168.49 14385 253 0 4955 75916 61641 18% 3 65162904 22970365 82%
c i 168.67 14385 252 0 4989 76110 61824 18% 3 65162904 22970359 82%
c i 168.84 14385 251 0 5016 76258 61959 18% 3 65162904 22970353 82%
c i 168.85 14385 251 0 5021 76275 61975 18% 3 65162904 22970347 82%
c i 169.02 14385 250 0 5045 76366 62059 18% 3 65162904 22970341 82%
c i 169.09 14385 250 0 5061 76459 62144 18% 3 65162904 22970339 82%
c i 169.09 14385 250 0 5061 76460 62144 18% 3 65162904 22970337 82%
c i 169.32 14385 249 0 5094 76644 62319 18% 3 65162904 22970030 82%
c i 169.34 14385 249 0 5095 76646 62320 18% 3 65162904 22970014 82%
c i 169.34 14385 249 0 5095 76648 62321 18% 3 65162904 22970012 82%
c i 169.70 14385 249 0 5129 76769 62424 18% 3 65162904 22969996 82%
c i 169.70 14385 249 0 5129 76770 62424 18% 3 65162904 22969993 82%
c i 169.70 14385 249 0 5130 76771 62424 18% 3 65162904 22969981 82%
c 
c  seconds       reductions     redundant   irredundant
c            MB      restarts          trail          variables
c               level     conflicts        glue              remaining
c 
c i 169.72 14385 249 0 5137 76804 62450 18% 3 65162904 22969975 82%
c i 169.73 14385 249 0 5139 76811 62456 18% 3 65162904 22969967 82%
c i 170.25 14385 249 0 5163 76988 62616 18% 3 65162904 22969965 82%
c i 170.26 14385 249 0 5163 77013 62637 18% 3 65162904 22969964 82%
c i 170.33 14385 248 0 5169 77063 62679 18% 3 65162904 22969961 82%
c i 170.33 14385 248 0 5169 77069 62683 18% 3 65162904 22969958 82%
c i 170.87 14385 248 0 5220 77305 62904 18% 3 65162904 22969940 82%
c i 170.87 14385 248 0 5221 77306 62904 18% 3 65162904 22969934 82%
c i 170.94 14385 247 0 5230 77374 62964 18% 3 65162904 22969916 82%
c i 171.12 14385 248 0 5239 77479 63059 18% 3 65162904 22969813 82%
c i 171.50 14385 250 0 5249 77597 63164 18% 3 65162904 22969812 82%
c i 171.58 14385 250 0 5257 77667 63230 18% 3 65162904 22969794 82%
c i 171.67 14385 250 0 5260 77676 63238 18% 3 65162904 22969793 82%
c i 171.69 14385 250 0 5263 77689 63249 18% 3 65162904 22969787 82%
c i 172.16 14385 250 0 5309 77869 63412 18% 3 65162904 22969784 82%
c i 172.16 14385 250 0 5309 77871 63413 18% 3 65162904 22969779 82%
c i 172.17 14385 250 0 5311 77879 63418 18% 3 65162904 22969766 82%
c i 172.17 14385 250 0 5313 77889 63427 18% 3 65162904 22969758 82%
